152
1000000
235
261316
245320
886303
79519
399324
411339
176154
574009
448780
473813
400736
946134
40787
149645
382546
984336
337735
75257
371168
273021
933375
139593
185143
15664
505063
279887
192136
43477
745406
197325
551220
929689
307685
497480
181300
436207
819423
541214
995217
56300
657167
738811
561761
632730
913095
230946
762360
5268
47414
119120
396818
502520
53631
72172
526187
662265
237645
133234
12100
189655
70516
32644
692315
873590
847027
631761
733408
600676
240496
86905
571202
559613
440387
287607
722125
21213
79084
261189
382431
237640
960161
367270
333386
759504
126410
35718
92343
136919
247206
599264
309625
4783
180577
511241
891006
331953
502470
37522
254594
362424
82457
807864
432928
617569
654657
312455
476032
954404
616372
834520
928961
611600
166583
603182
66625
488759
70311
212473
523968
33875
39839
438239
414524
530458
277875
378893
476509
266592
37164
523491
33496
66283
568776
106137
342833
312737
729711
19885
368239
499153
226986
563793
108994
425991
816930
59343
444547
428798
294588
920916
441300
